StringID Type x y demand ReadyTime DueDate ServiceTime
D0 d 40 50 0 0 1236 0
Dt d 40 50 0 0 1236 0
S0 f 40 50 0 0 1236 0
S5 f 31 84 0 0 1236 0
S15 f 39 26 0 0 1236 0
C30 c3 20 55 10 355 407 90
C12 c2 25 85 20 176 228 90
C100 c2 55 85 20 744 798 90
C85 c1 68 60 30 737 809 90
C64 c2 48 30 10 263 325 90
P0 p 52 47 0 0 1236 45
param Q := 77.75
param CV := 200
param r := 1
param g := 3.47
param V := 1
